(set-logic QF_S)
(declare-fun V13 () String )
(declare-fun V8 () String )
(declare-fun V14 () String )
(declare-fun V11 () String )
(declare-fun V17 () String )
(declare-fun V16 () String )
(declare-fun V9 () String )
(declare-fun V7 () String )
(declare-fun V18 () String )
(declare-fun V15 () String )
(declare-fun V6 () String )
(declare-fun V5 () String )
(declare-fun V12 () String )
(assert (= (str.++ (str.++ V14 V15 ) V16 ) (str.++ (str.++ V5 V6 ) V7 ) ) )
(assert (= (str.++ (str.++ V14 V15 ) V16 ) (str.++ (str.++ V8 " " ) V9 ) ) )
(assert (= (str.++ (str.++ V14 V15 ) V16 ) (str.++ (str.++ V17 " " ) V18 ) ) )
(assert (= (str.++ (str.++ V12 "\x09" ) V13 ) (str.++ (str.++ (str.++ V11 V14 ) V15 ) V16 ) ) )
( check-sat )
